\ENCODING=ISO-8859-1
\Problem name: IloCplex

Minimize
 obj1: 1419.47102823552 x(0)#0 + 653.443953220167 x(1)#1
       + 1876.53776940407 x(2)#2 + 1070.58208466236 x(3)#3
       + 869.626356546304 x(4)#4 + 1320.1094651581 x(5)#5
       + 753.302064247802 x(6)#6 + 1249.80798525213 x(7)#7
       + 1748.6589147115 x(8)#8 + 1976.24011698984 x(9)#9
       + 1548.47828528527 x(10)#10 + 432.907611390698 x(11)#11
       + 1209.76857290971 x(12)#12 + 2408.37372515148 x(13)#13
       + 1894.44345389352 x(14)#14
Subject To
 NodeDegree(0): x(0)#0 + x(1)#1 + x(2)#2 + x(3)#3 + x(4)#4  = 2
 NodeDegree(1): x(0)#0 + x(5)#5 + x(6)#6 + x(7)#7 + x(8)#8  = 2
 NodeDegree(2): x(1)#1 + x(5)#5 + x(9)#9 + x(10)#10 + x(11)#11  = 2
 NodeDegree(3): x(2)#2 + x(6)#6 + x(9)#9 + x(12)#12 + x(13)#13  = 2
 NodeDegree(4): x(3)#3 + x(7)#7 + x(10)#10 + x(12)#12 + x(14)#14  = 2
 NodeDegree(5): x(4)#4 + x(8)#8 + x(11)#11 + x(13)#13 + x(14)#14  = 2
Bounds
 0 <= x(0)#0 <= 1
 0 <= x(1)#1 <= 1
 0 <= x(2)#2 <= 1
 0 <= x(3)#3 <= 1
 0 <= x(4)#4 <= 1
 0 <= x(5)#5 <= 1
 0 <= x(6)#6 <= 1
 0 <= x(7)#7 <= 1
 0 <= x(8)#8 <= 1
 0 <= x(9)#9 <= 1
 0 <= x(10)#10 <= 1
 0 <= x(11)#11 <= 1
 0 <= x(12)#12 <= 1
 0 <= x(13)#13 <= 1
 0 <= x(14)#14 <= 1
Binaries
 x(0)#0  x(1)#1  x(2)#2  x(3)#3  x(4)#4  x(5)#5  x(6)#6  x(7)#7  x(8)#8 
 x(9)#9  x(10)#10  x(11)#11  x(12)#12  x(13)#13  x(14)#14 
End
